s 0
v 0 0 0 0 0 0 0 0 0 0 0 0 0 0 0 0 0 0 0 0 0 0 0 0 0 0 0 0 0 0 0 0 0 0 0 0 0 0 0 0 0 0 0 44 0 46 0 0 0 0 0 0 0 0 0 0 0 0 0 0 -61 0 -63 0 0 0 0 0 0 0 -71 0 0 0 0 0 0 0 0 0 0 0 0 0 0 0 0 0 0 0 0 0 0 0 0 0 0 0 99 0 0 0 0 0 0 0 0 0 0 0 0 0 0 0 0 0 0 0 0 0 0 0 0 0 -125 0 0 0 0 130 0 132 0 0 0 0 0 0 0 140 0 0 0 0 0 0 0 0 0 0 0 0 0 0 0 -156 0 0 0 0 0 0 0 0 -165 0 0 0 0 0 0 0 0 0 0 0 0 0 0 0 0 0 0 0 0 0 0 0 0 0 0 0 0 0 0 0 0 0 0 0 0 0 0 0 0 0 0 0 0 0 0 0 0 0 0 0 0 0 0 0 0 0 0 0 0 0 0 -228 229 230 0 0 0 0 0 0 0 0 0 0 0 0 0 244 0 0 0 0 0 0 0 0 0 0 0 0 0 0 0 0 0 0 0 0 0 0 0 0 0 0 0 -272 0 0 0 0 0 0 0 0 0 0 0 0 0 0 0 0 0 0 0 0 0 0 0 0 0 0 0 0 0 0 303 0 0 0 0 0 0 0 0 0 0 -314 0 0 0 0 -319 0 0 0 0 0 0 0 0 0 0 0 0 0 0 0 0 0 0 0 0 0 0 0 0 0 0 0 0 0 0 350 0 0 0 0 0 -356 0 0 0 0 -361 0 0 0 0 0 367 0 0 0 0 0 0 0 0 0 0 0 0 0 0 0 0 0 0 0 0 0 0 0 0 0 0 0 395 0 0 0 0 0 0 0 0 0 0 0 0 0 0 0 0 -412 0 414 0 0 0 0 0 0 0 0 0 0 0 0 0 0 0 0 0 0 0 0 0 0 0 0 0 440 0 0 0 0 0 446 0 0 0 0 0 0 0 0 0 0 0 0 0 0 0 0 0 0 0 0 0 0 0 -470 0 0 0 0 0 0 0 0 0 0 0 0 0 0 0 0 0 488 0 0 0 0 0 0 0 0 0 0 0 0 0 0 0 0 0 0 0 0 0 0 0 0 -513 0 0 0 0 0 0 -520 0 0 0 0 0 0 0 0 0 0 531 0 533 0 0 -536 -537 0 0 0 0 0 0 0 0 0 0 0 0 0 0 0 0 0 0 0 0 -558 0 0 -561 0 -563 0 0 0 0 0 0 0 0 0 0 -574 0 0 0 0 0 0 -581 0 0 0 0 0 0 0 0 0 0 0 0 0 0 0 0 0 0 0 0 0 0 0 0 0 0 0 0 0 0 0 0 0 0 0 0 0 0 0 0 0 0 0 0 -626 0 0 0 0 0 0 0 634 0 0 0 0 -639 0 0 0 0 0 0 0 0 0 0 0 0 0 0 0 0 0 0 0 -659 0 0 0 0 0 0 0 0 0 0 0 0 0 0 0 0 -676 0 0 0 -680 0 0 0 0 0 0 0 0 0 0 0 -692 0 0 -695 0 0 0 0 0 0 0 0 0 0 0 707 0 0 0 0 0 0 0 0 0 0 0 0 0 0 0 0 0 0 0 0 0 0 0 0 0 0 0 0 0 0 0 0 -740 0 0 0 0 0 0 0 0 0 0 0 0 0 -754 0 0 0 -758 0 0 0 0 0 0 0 0 0 -768 0 0 0 0 0 0 0 0 0 0 0 0 0 0 0 0 0 0 0 0 0 0 0 0 0 0 0 0 0 0 0 0 0 0 0 0 0 0 0 0 0 0 0 0 0 0 0 0 0 0 0 0 0 0 823 0 0 0 0 0 0 0 0 0 0 0 0 0 0 0 0 0 841 -842 0 0 0 0 0 0 0 0 0 0 0 0 0 0 0 0 0 0 0 0 0 0 0 0 0 0 0 0 0 0 0 0 0 0 0 0 0 0 881 0 0 884 0 0 0 0 889 0 0 0 -893 0 0 0 0 0 0 0 0 0 0 0 0 0 0 0 0 0 0 0 0 0 0 0 0 0 0 0 0 0 0 0 0 0 0 0 0 930 0 -932 -933 0 0 0 0 0 0 940 0 0 0 0 0 0 0 0 0 0 0 0 0 0 0 0 0 0 0 -960 0 0 0 0 0 0 0 0 0 0 971 -972 0 0 0 0 0 0 979 0 0 0 0 -984 0 0 987 0 0 0 0 0 0 -994 0 0 0 0 999 0 0 0 0 0 0 0 0 -1008 0 0 0 0 0 0 0 -1016 0 0 0 -1020 0 0 0 0 0 0 0 0 0 0 -1031 0 0 0 0 0 0 0 0 0 0 0 0 0 0 0 0 0 0 0 0 0 1053 0 1055 0 1057 0 0 0 0 0 0 -1064 0 0 0 0 0 0 0 0 0 0 0 0 0 1078 0 0 0 0 0 0 0 0 0 0 0 0 0 0 -1093 0 0 0 0 0 0 0 0 0 0 0 0 0 0 0 0 0 0 0 0 0 0 0 0 0 0 1120 0 0 0 0 0 0 0 1128 0 0 0 0 0 0 0 0 0 0 0 0 0 0 0 0 0 0 0 0 0 0 0 0 0 0 0 0 0 0 -1159 0 0 0 0 0 0 0 -1167 0 0 0 0 0 0 0 0 0 0 0 0 0 0 0 0 0 0 0 0 0 -1189 0 0 0 0 -1194 0 0 0 0 0 0 0 0 0 0 0 0 0 0 0 0 0 0 0 0 0 0 0 0 0 0 0 0 0 0 0 0 0 0 0 0 0 0 0 0 0 0 0 0 0 0 0 0 0 0 0 0 0 0 0 0 0 0 -1253 0 0 -1256 0 0 0 0 0 0 0 0 0 0 1267 0 0 -1270 0 0 0 0 0 0 0 0 0 0 0 0 0 0 0 0 0 0 0 0 -1291 0 0 -1294 0 0 0 0 0 0 0 0 0 -1304 0 0 0 0 0 0 0 0 0 0 0 0 0 0 0 0 0 0 0 1324 0 0 0 0 0 0 0 0 0 0 0 0 0 0 0 0 0 0 0 0 0 0 0 0 0 0 0 0 0 0 0 0 0 0 0 0 0 0 0 1364 1365 0 0 0 0 0 0 0 0 0 0 0 0 0 0 0 0 0 0 0 0 0 0 0 0 0 0 0 0 0 0 0 0 0 0 0 0 0 0 0 0 0 0 0 -1409 0 0 0 0 0 0 0 0 0 0 0 0 0 0 0 0 0 0 0 0 -1430 0 0 0 0 0 0 0 0 0 0 0 0 0 0 0 0 0 0 0 0 0 0 0 0 0 0 0 0 0 0 0 0 0 0 0 0 0 1468 0 0 -1471 0 0 0 0 0 0 0 0 0 0 0 0 0 0 -1486 0 0 0 0 0 0 0 0 0 0 0 1498 0 0 0 0 0 0 0 0 0 0 0 0 0 0 0 0 0 0 0 1518 0 0 1521 0 0 -1524 0 0 0 0 0 0 0 0 0 1534 0 0 -1537 0 0 0 0 0 0 0 0 0 0 0 0 0 0 0 0 1554 0 0 0 0 0 0 0 0 0 1564 0 0 0 0 0 0 0 0 0 0 0 0 1577 0 0 0 0 0 0 1584 0 0 1587 0 0 0 0 0 0 0 0 0 0 0 1599 0 0 0 0 0 0 0 0 0 0 0 0 0 0 0 0 0 0 0 0 0 0 0 0 0 0 0 0 0 0 0 0 0 0 0 0 0 0 0 0 0 0 0 0 0 0 0 0 0 0 0 0 0 0 0 0 0 0 0 0 0 0 0 0 0 0 0 0 0 0 0 1671 0 0 0 0 0 0 0 0 0 0 0 0 0 0 0 0 0 0 0 0 0 0 0 0 0 0 0 0 0 0 0 0 -1704 0 0 0 0 0 0 0 0 0 0 0 0 0 0 0 1720 -1721 0 0 0 0 0 0 0 0 0 0 0 0 -1734 0 0 0 0 0 0 0 0 0 0 0 0 0 0 0 0 0 0 0 0 0 0 0 0 0 0 0 -1762 -1763 0 0 0 0 0 0 0 0 0 0 0 0 0 0 0 0 0 0 0 0 0 0 0 0 0 0 0 0 0 0 0 0 0 0 0 0 0 0 0 0 0 0 0 0 0 0 0 0 -1812 0 0 0 0 0 0 0 0 0 0 0 0 0 0 0 0 0 0 0 0 0 0 1835 0 0 0 0 0 0 0 0 0 -1845 0 0 0 0 0 0 0 0 0 0 0 0 0 0 -1860 0 0 0 0 0 0 0 0 0 0 0 0 0 0 0 0 0 0 0 0 0 0 0 0 0 0 0 0 -1889 0 0 0 0 0 0 0 0 0 0 0 0 0 0 0 0 0 0 0 0 0 0 0 0 0 0 0 0 0 0 0 0 0 0 0 0 0 0 0 0 0 0 0 0 0 0 0 0 0 0 0 0 0 0 0 0 0 0 1948 1949 0 0 0 0 0 0 0 0 0 0 0 0 0 0 0 0 0 0 0 0 1970 0 0 0 0 0 1976 0 0 0 0 0 0 0 0 0 0 0 0 0 0 0 0 0 0 1995 0 0 0 0 0 0 0 0 0 0 0 0 0 0 0 0 0 0 0 0 0 0 0 0 0 0 0 0 -2024 -2025 0 0 0 0 0 0 0 0 -2034 0 0 0 0 0 0 0 0 0 0 0 0 0 -2048 0 0 0 0 0 0 0 -2056 0 0 0 0 0 0 0 0 0 0 0 0 0 0 0 0 0 0 0 0 0 0 0 0 0 0 0 0 0 0 0 0 0 0 -2091 0 0 0 0 0 0 0 0 0 0 0 0 0 0 0 0 0 0 0 0 0 0 0 0 0 0 0 0 0 0 0 0 0 0 0 0 0 0 0 0 0 0 0 0 0 -2137 0 0 0 0 0 0 0 0 0 0 0 0 0 0 0 0 0 0 0 0 2158 0 0 0 0 0 0 0 0 0 0 0 0 0 0 0 0 0 -2176 0 0 0 0 0 0 0 0 0 0 0 0 0 0 0 0 0 0 0 0 0 0 0 -2200 0 0 0 0 0 0 0 0 0 0 0 0 0 0 0 0 0 0 0 0 0 0 0 0 0 0 0 0 0 0 0 0 0 0 0 2236 0 0 0 0 0 0 0 0 0 0 0 0 0 0 0 0 0 0 0 0 0 -2258 0 0 0 0 0 0 0 0 0 0 0 2270 0 0 0 0 0 -2276 0 0 0 0 0 0 0 0 0 0 0 0 0 0 0 0 0 0 0 0 0 0 0 0 0 0 0 2304 2305 0 0 0 0 0 0 0 0 0 0 0 0 0 0 0 0 0 2323 0 0 0 0 0 0 0 0 0 0 0 0 0 0 0 0 0 0 0 0 0 0 0 0 0 2349 0 0 0 0 0 0 0 0 0 0 0 0 0 0 0 0 0 0 0 0 0 0 0 0 0 0 0 0 0 -2379 0 0 0 0 0 0 0 0 0 0 0 0 0 0 0 0 0 0 -2398 0 0 0 0 0 0 0 0 0 0 0 0 0 0 0 0 0 0 0 0 0 0 0 0 0 0 0 0 0 0 0 0 0 0 2433 0 0 0 0 2438 0 0 0 0 0 -2444 0 0 0 0 0 0 2451 0 0 0 0 0 0 0 0 0 0 0 0 0 0 0 0 0 0 0 0 0 0 0 0 0 0 0 0 0 0 0 0 0 0 0 0 0 0 0 0 0 0 0 0 0 0 0 0 -2500 0 0 0 0 0 0 0 0 -2509 0 0 0 0 0 0 0 0 0 0 0 2521 0 0 0 0 0 0 0 0 0 0 2532 0 0 2535 0 0 0 0 0 0 0 0 -2544 0 2546 0 0 0 0 0 0 0 0 0 0 0 0 0 0 0 0 0 0 0 0 2567 0 -2569 0 0 0 0 -2574 0 0 2577 -2578 -2579 0 0 -2582 0 0 0 0 0 0 0 0 0 0 0 0 0 0 0 0 -2599 0 0 0 0 0 0 0 0 0 0 0 0 0 0 0 0 0 0 0 0 2620 0 0 0 0 0 0 0 0 0 0 0 -2632 0 0 0 0 0 0 0 0 0 0 0 0 0 0 0 0 0 0 0 0 0 0 0 0 0 0 0 0 0 0 0 0 0 0 0 0 0 0 0 0 0 0 0 0 0 0 0 0 0 0 0 0 0 0 0 0 0 0 0 -2692 0 0 0 -2696 0 0 0 0 0 0 0 0 0 0 0 0 -2709 0 0 0 0 0 0 0 0 0 0 0 0 0 0 0 0 0 2727 0 0 0 0 0 0 0 0 0 0 0 0 0 0 0 0 0 0 0 0 0 0 0 0 2752 0 0 0 0 0 0 0 0 0 0 0 0 0 0 0 0 0 0 0 0 0 0 0 0 0 0 0 0 0 0 0 0 0 0 2787 0 0 0 0 0 0 0 0 0 0 0 0 0 0 2802 0 0 0 0 0 0 0 0 0 0 0 0 0 0 0 0 0 0 0 0 0 0 0 0 -2827 0 0 0 0 0 0 0 0 0 0 0 0 0 0 0 0 0 0 0 0 0 0 0 0 0 0 -2854 0 0 0 0 0 0 0 0 0 0 0 0 0 0 0 0 0 0 0 0 0 0 0 0 0 0 0 0 0 0 0 0 0 0 0 0 0 0 0 0 0 0 0 0 0 0 0 2902 0 0 0 0 0 0 0 0 0 0 0 0 0 -2916 0 0 0 0 0 0 2923 0 0 0 0 0 0 0 0 0 0 0 0 0 0 0 0 0 0 0 0 0 0 0 0 0 0 0 0 0 0 0 0 0 -2957 0 0 0 0 0 -2963 0 0 0 0 0 0 0 0 0 0 0 0 0 0 -2978 0 0 0 0 0 0 2985 0 0 0 0 0 0 0 0 0 0 0 0 0 -2999 0 0 0 0 0 0 0 0 -3008 0 0 0 0 0 3014 0 3016 0 0 0 0 0 0 0 0 0 0 0 0 0 0 0 0 0 0 0 0 0 0 0 0 0 0 0 0 0 0 0 0 0 0 0 0 0 0 0 0 0 0 0 0 0 0 0 0 0 0 0 0 0 0 0 0 0 0 0 0 0 0 0 0 0 0 0 0 0 0 0 0 -3089 0 0 0 0 3094 0 0 0 0 0 0 0 3102 0 0 3105 0 0 0 0 0 0 0 0 0 0 0 0 0 0 0 0 0 0 0 0 0 0 0 0 0 0 0 0 0 0 0 0 0 0 0 0 -3142 0 0 0 0 0 3148 0 0 0 0 0 0 0 0 0 0 0 0 0 0 0 0 0 0 0 0 0 0 0 0 0 0 0 0
t 240060